solution status: optimal solution found
objective value:                     135352.550959195
d11(0,0)                                            1 	(obj:0)
d11(1,1)                                            1 	(obj:0)
d11(1,2)                                            1 	(obj:0)
d11(2,3)                                            1 	(obj:0)
d11(2,5)                                            1 	(obj:0)
d11(3,7)                                            1 	(obj:0)
d11(3,9)                                            1 	(obj:0)
d11(3,11)                                           1 	(obj:0)
d12(3,8)                                            1 	(obj:0)
d12(3,10)                                           1 	(obj:0)
d12(3,12)                                           1 	(obj:0)
d12(3,14)                                           1 	(obj:0)
d21(2,3)                                            1 	(obj:0)
d21(3,7)                                            1 	(obj:0)
d21(3,8)                                            1 	(obj:0)
d21(3,11)                                           1 	(obj:0)
WB(2)                                3315.65537776224 	(obj:0)
y2(3,8)                              1385.48851144895 	(obj:0)
y2(3,10)                             1385.48851144895 	(obj:0)
y2(3,12)                             1385.48851144895 	(obj:0)
y2(3,14)                             1385.48851144898 	(obj:0)
STE(1,1)                             4347.00014999801 	(obj:0)
STE(0,0)                                         9450 	(obj:0)
STE(1,2)                             6005.25004888683 	(obj:0)
STE(2,3)                             1932.75025110916 	(obj:0)
STE(2,4)                             3591.00014999801 	(obj:0)
STE(2,5)                             3591.00014999798 	(obj:0)
STE(2,6)                             5249.25004888683 	(obj:0)
STE(3,7)                             1176.75025110916 	(obj:0)
STE(3,8)                             2492.96433698566 	(obj:0)
STE(3,9)                             2835.00014999801 	(obj:0)
STE(3,10)                            4151.21423587451 	(obj:0)
STE(3,11)                            2835.00014999798 	(obj:0)
STE(3,12)                            4151.21423587448 	(obj:0)
STE(3,13)                            4493.25004888683 	(obj:0)
STE(3,14)                            5809.46413476336 	(obj:0)
AVE(2)                               3315.65537776224 	(obj:0)
WB(3)                                3315.65799770399 	(obj:0)
y1(1,1)                              3912.29986500179 	(obj:0)
y1(1,2)                              2419.87495600186 	(obj:0)
y1(2,3)                              1492.42490899996 	(obj:0)
y1(2,5)                              1492.42490899996 	(obj:0)
AVE(3)                               3315.65799770399 	(obj:0)
WG(1)                                3248.33172520918 	(obj:10)
BG(1)                                3417.22093295595 	(obj:10)
BG(2)                                4196.29249897959 	(obj:10)
BG(3)                                2673.40993877527 	(obj:10)
AVE(1)                               3248.33172520918 	(obj:0)
